
  12    4
  10   10   10   10

   0   0   0   0   0   4 2 5 6 11 
   6  10  10  10  10   4 10 8 4 3 
   3  10  10  10  10   1 7 
   1  10  10  10  10   1 7 
   2  10  10  10  10   1 9 
   9  10  10  10  10   1 8 
   1  10  10  10  10   1 12
   2  10  10  10  10   1 12
   5  10  10  10  10   1 12
   4  10  10  10  10   1 12
   3  10  10  10  10   1 12
   0   0   0   0   0   0 
